000 000 000 000 000 000 000 000 -99 -99 -99 -99 -99 000 000 -99 -99 -99 -99 -99 000 -99 -99 -99 -99 -99 000 -99 -99 -99 -99
000 000 000 000 000 000 000 000 -99 -99 -99 -99 -99 000 000 000 -99 -99 -99 -99 000 000 -99 -99 -99 -99 -99 -99 -99 -99 -99
000 000 000 000 000 000 000 -99 -99 -99 -99 -99 -99 -99 000 000 -99 -99 -99 -99 -99 000 000 000 -99 -99 000 000 -99 -99 -99
000 000 000 000 000 000 000 -99 -99 000 -99 -99 -99 -99 000 -99 -99 -99 -99 -99 000 -99 000 000 000 -99 000 000 000 -99 -99
000 000 000 000 000 000 000 000 -99 000 -99 -99 000 -99 -99 000 -99 -99 -99 -99 000 000 000 000 000 -99 -99 000 -99 -99 -99
000 000 000 000 000 000 000 000 000 000 -99 -99 000 000 000 -99 -99 -99 -99 -99 000 000 000 000 000 000 -99 000 -99 -99 -99
000 000 000 000 000 000 000 000 000 000 000 -99 -99 000 000 000 000 000 -99 000 000 000 000 000 000 000 -99 -99 -99 -99 -99
000 000 000 000 000 000 -99 000 000 000 000 -99 -99 -99 -99 -99 000 000 000 -99 000 000 000 000 000 000 -99 -99 -99 -99 000
000 000 000 000 000 000 -99 000 000 000 000 000 -99 -99 -99 -99 000 000 -99 000 000 000 000 -99 000 000 -99 -99 -99 -99 000
000 000 000 000 000 000 000 -99 -99 000 000 000 -99 -99 -99 -99 -99 000 000 000 000 000 000 -99 000 -99 -99 -99 000 000 -99
000 000 000 000 000 000 000 000 000 000 000 000 000 000 -99 000 -99 000 000 -99 000 000 -99 -99 -99 -99 -99 -99 000 000 -99
000 000 000 000 000 -99 000 000 000 000 000 000 000 000 000 000 -99 000 000 000 -99 000 -99 000 -99 -99 000 000 -99 000 -99
000 000 000 000 000 000 000 000 000 000 000 000 000 000 000 000 -99 000 000 000 -99 000 -99 -99 000 -99 000 -99 -99 -99 -99
000 000 000 000 000 000 000 000 000 000 000 000 000 -99 007 003 000 000 000 000 -99 -99 -99 000 000 000 000 000 -99 -99 -99
000 -99 000 000 000 000 000 000 -99 000 000 -99 -99 000 100 004 000 000 -99 -99 -99 -99 -99 000 000 000 000 000 -99 000 -99
000 -99 000 000 000 000 000 000 -99 -99 -99 -99 -99 000 008 008 -99 000 -99 -99 -99 -99 -99 -99 000 000 000 000 000 000 -99
000 -99 000 000 -99 -99 000 000 000 -99 -99 -99 -99 000 000 004 001 000 -99 -99 -99 -99 000 -99 000 000 000 000 000 000 -99
000 000 000 -99 -99 -99 000 000 000 -99 -99 -99 -99 000 000 000 000 000 -99 -99 -99 000 000 -99 000 000 -99 -99 000 000 -99
000 000 000 000 -99 -99 -99 000 000 -99 -99 -99 -99 -99 -99 000 000 000 000 -99 000 000 000 -99 000 000 000 -99 -99 000 -99
000 000 000 000 000 000 -99 000 000 000 -99 000 000 000 -99 000 000 000 000 -99 001 000 000 -99 -99 -99 -99 -99 -99 -99 -99
000 000 000 000 000 000 -99 000 000 000 -99 000 000 000 000 000 000 000 000 000 000 000 000 -99 -99 -99 -99 -99 -99 -99 -99
000 000 000 000 000 000 000 000 000 -99 001 000 -99 000 000 000 000 000 000 000 000 000 000 -99 -99 -99 -99 -99 -99 -99 -99
000 000 000 000 000 000 000 000 000 -99 001 000 -99 -99 000 000 000 000 000 000 000 000 000 -99 -99 -99 -99 -99 -99 -99 -99
000 000 000 000 000 000 000 000 000 -99 000 000 -99 000 000 000 000 000 000 000 000 000 000 -99 -99 -99 -99 -99 -99 -99 -99
000 000 000 000 000 000 000 000 000 000 000 -99 000 000 000 000 000 000 000 000 000 000 000 -99 -99 -99 -99 -99 -99 -99 -99
000 000 000 000 000 000 000 000 000 000 000 -99 000 000 000 000 000 000 000 000 000 000 -99 -99 -99 -99 -99 -99 -99 -99 000
000 000 000 000 000 000 000 000 000 000 -99 -99 -99 000 000 000 000 000 000 000 000 000 -99 -99 -99 -99 -99 -99 -99 -99 000
000 000 000 -99 000 000 000 000 000 000 -99 -99 -99 000 000 000 000 000 000 000 000 000 000 -99 -99 -99 -99 -99 -99 -99 000
000 000 -99 -99 000 000 000 -99 000 000 -99 -99 -99 000 000 000 000 -99 000 000 000 000 -99 -99 -99 -99 -99 -99 -99 -99 -99
000 000 000 000 000 000 -99 000 000 000 -99 -99 -99 000 000 000 000 -99 000 000 000 000 -99 -99 -99 -99 -99 -99 -99 -99 -99
000 000 000 000 000 000 000 000 000 000 -99 -99 -99 -99 000 000 -99 000 000 000 000 000 -99 -99 -99 -99 -99 -99 -99 -99 -99
000 000 000 000 000 000 000 000 000 -99 -99 -99 -99 -99 -99 -99 000 000 000 -99 -99 -99 -99 -99 000 -99 -99 -99 -99 -99 000
000 000 000 000 000 000 -99 000 000 000 -99 -99 -99 -99 000 -99 000 000 000 -99 -99 -99 000 000 000 000 -99 000 000 000 000
000 000 000 000 000 000 000 000 000 -99 -99 -99 -99 000 000 -99 000 000 000 -99 000 -99 000 000 000 000 000 000 000 000 000
000 000 000 000 000 000 000 000 000 000 -99 -99 000 -99 000 -99 000 -99 000 000 000 -99 -99 000 000 000 000 000 000 000 000
000 000 000 000 000 000 000 000 000 -99 -99 -99 000 000 000 000 000 -99 000 000 000 000 -99 000 000 000 000 000 000 000 -99
000 000 -99 000 000 -99 -99 000 000 000 -99 -99 000 000 000 000 000 000 000 000 000 000 000 000 000 000 000 000 -99 000 -99
000 000 -99 000 000 000 -99 000 000 -99 -99 -99 000 000 000 000 000 000 000 000 000 000 000 000 000 -99 000 000 -99 -99 -99
000 -99 000 000 000 000 -99 000 -99 -99 -99 -99 000 000 000 000 000 000 -99 000 000 000 000 000 000 -99 000 000 -99 -99 -99
-99 -99 000 000 000 -99 -99 -99 -99 -99 -99 000 000 000 000 000 000 000 -99 -99 000 -99 000 000 -99 000 000 000 -99 -99 -99
000 000 000 000 000 -99 -99 -99 -99 -99 000 000 000 000 000 000 000 -99 -99 -99 000 -99 000 000 -99 000 000 -99 -99 -99 -99
000 000 000 000 -99 -99 -99 -99 -99 -99 000 000 000 000 000 000 000 000 000 000 000 000 000 000 000 -99 -99 -99 -99 -99 -99
000 000 -99 -99 -99 -99 -99 -99 -99 000 000 000 000 000 000 000 000 000 000 000 000 000 000 000 000 000 -99 -99 -99 -99 -99
000 -99 -99 -99 -99 -99 -99 -99 -99 000 000 000 000 000 000 000 -99 000 000 000 000 000 -99 -99 000 000 -99 000 -99 -99 -99
000 -99 -99 -99 -99 -99 -99 -99 -99 -99 000 000 000 -99 000 000 000 000 000 000 -99 -99 -99 000 000 -99 -99 000 000 -99 -99
000 -99 -99 -99 -99 -99 -99 -99 -99 -99 000 000 000 -99 000 -99 000 000 000 000 -99 -99 -99 000 000 -99 -99 000 000 -99 -99
000 -99 -99 -99 -99 -99 -99 -99 -99 -99 -99 000 000 000 000 000 -99 000 000 000 -99 -99 000 000 000 -99 000 -99 -99 -99 -99
-99 -99 -99 -99 -99 -99 -99 -99 -99 -99 000 000 -99 -99 000 -99 -99 000 000 -99 -99 000 000 000 -99 -99 -99 -99 -99 -99 -99
-99 -99 -99 -99 -99 -99 -99 -99 -99 000 -99 000 000 000 000 -99 -99 000 000 -99 000 000 000 000 -99 -99 -99 -99 -99 -99 -99
-99 -99 -99 -99 -99 -99 -99 -99 000 000 -99 000 -99 000 000 -99 -99 000 000 -99 000 000 -99 000 -99 -99 -99 -99 -99 -99 -99
-99 -99 -99 -99 -99 -99 -99 -99 -99 -99 -99 000 000 000 000 -99 -99 -99 -99 -99 000 000 -99 -99 -99 -99 -99 -99 -99 -99 -99
-99 -99 -99 -99 -99 -99 -99 -99 -99 -99 -99 -99 000 000 -99 -99 -99 -99 -99 000 000 -99 -99 -99 -99 -99 -99 -99 -99 -99 -99
-99 -99 -99 -99 -99 -99 -99 -99 -99 -99 -99 -99 000 000 -99 -99 -99 -99 -99 -99 000 -99 -99 -99 -99 -99 -99 -99 -99 -99 -99
-99 -99 -99 -99 -99 -99 -99 -99 -99 -99 -99 -99 -99 -99 -99 -99 -99 -99 -99 -99 -99 -99 -99 -99 -99 -99 -99 -99 -99 -99 -99
-99 -99 -99 -99 -99 -99 -99 -99 -99 -99 -99 -99 -99 -99 -99 -99 -99 -99 -99 -99 -99 -99 -99 -99 -99 -99 -99 -99 -99 -99 -99
